# x   |  y    | demand	| numItems | l - w (for each item)
10.0	45.0	0.0	0
25.0	1.0	25.0	5	5	9	5	8	9	5	7	5	9	4
25.0	3.0	7.0	4	11	4	11	2	7	2	5	2
31.0	5.0	13.0	1	20	3
32.0	5.0	6.0	4	5	7	7	5	6	5	7	4
31.0	7.0	14.0	4	6	11	7	8	8	5	4	5
32.0	9.0	5.0	1	6	7
34.0	9.0	11.0	4	8	11	7	10	6	6	17	3
46.0	9.0	19.0	4	6	10	7	5	7	3	17	2
35.0	7.0	5.0	3	5	6	11	4	5	4
34.0	6.0	15.0	3	5	6	9	4	7	3
35.0	5.0	15.0	5	4	11	5	9	9	4	9	3	6	2
47.0	6.0	17.0	1	7	3
40.0	5.0	13.0	2	5	8	14	3
39.0	3.0	12.0	1	10	5
36.0	3.0	18.0	1	7	4
73.0	6.0	13.0	4	7	5	14	4	14	3	9	3
73.0	8.0	18.0	2	8	8	4	4
24.0	36.0	12.0	5	7	11	5	6	12	5	5	4	11	3
76.0	6.0	17.0	4	24	4	14	3	7	2	6	2
76.0	10.0	4.0	2	8	6	19	3
76.0	13.0	7.0	1	9	3
78.0	3.0	12.0	1	6	5
78.0	9.0	13.0	4	6	11	6	9	8	5	8	4
79.0	3.0	8.0	5	5	10	5	6	8	4	16	3	11	3
79.0	5.0	16.0	3	4	10	4	9	6	5
79.0	11.0	15.0	5	8	7	8	7	11	5	6	4	4	2
82.0	3.0	6.0	2	5	10	8	3
82.0	7.0	5.0	1	7	4
90.0	15.0	9.0	5	8	11	6	4	16	3	14	3	7	3
84.0	3.0	11.0	1	6	2
84.0	5.0	10.0	5	8	11	8	4	5	4	23	3	8	3
84.0	9.0	3.0	5	4	7	6	5	6	4	7	3	7	3
85.0	1.0	7.0	5	5	8	7	5	5	5	7	3	4	2
87.0	5.0	2.0	5	5	9	14	4	11	4	17	3	7	2
85.0	8.0	4.0	2	6	8	10	4
87.0	7.0	4.0	3	6	11	22	3	16	2
86.0	41.0	18.0	1	5	9
86.0	44.0	14.0	4	6	10	8	4	15	3	6	3
86.0	46.0	12.0	1	5	9
85.0	55.0	17.0	1	12	3
89.0	43.0	20.0	2	7	6	6	2
89.0	46.0	14.0	4	7	12	4	12	5	5	12	2
89.0	52.0	16.0	3	6	11	21	4	11	3
92.0	42.0	10.0	4	8	4	6	4	14	3	8	3
92.0	52.0	9.0	5	11	6	4	6	8	4	4	4	4	3
94.0	42.0	11.0	3	6	8	14	4	8	2
94.0	44.0	7.0	5	5	11	8	4	6	4	10	3	7	3
94.0	48.0	13.0	4	4	12	6	11	4	6	11	2
96.0	42.0	5.0	1	19	2
99.0	46.0	4.0	5	6	10	8	4	24	3	7	3	24	2
99.0	50.0	21.0	4	5	7	4	5	4	5	23	3
83.0	80.0	13.0	2	7	9	9	5
83.0	83.0	11.0	3	7	6	21	4	16	3
85.0	81.0	12.0	5	7	10	8	7	12	5	10	4	7	2
85.0	85.0	14.0	5	7	6	11	4	8	3	22	2	11	2
85.0	89.0	10.0	1	4	3
87.0	80.0	8.0	5	18	4	12	3	9	3	9	3	6	3
87.0	86.0	16.0	2	7	6	7	5
90.0	77.0	19.0	3	5	6	4	3	4	3
90.0	88.0	5.0	2	18	3	5	3
93.0	82.0	17.0	5	23	4	4	4	17	3	14	3	6	3
93.0	84.0	7.0	5	6	10	10	6	17	3	8	3	6	2
93.0	89.0	16.0	4	10	6	5	4	7	3	7	2
94.0	86.0	14.0	3	4	11	12	3	5	3
95.0	80.0	17.0	2	5	5	13	4
99.0	89.0	13.0	1	24	3
37.0	83.0	17.0	3	5	6	7	3	6	3
50.0	80.0	13.0	3	4	11	5	4	23	2
35.0	85.0	14.0	1	6	3
35.0	87.0	16.0	4	7	5	8	4	11	3	5	2
44.0	86.0	7.0	5	4	9	11	6	8	6	16	2	8	2
46.0	89.0	13.0	3	6	6	5	4	7	3
46.0	83.0	9.0	4	5	12	24	4	7	4	16	2
46.0	87.0	11.0	4	4	11	18	3	9	3	8	3
46.0	89.0	35.0	4	6	5	19	4	7	3	5	3
48.0	83.0	5.0	5	10	4	12	3	9	3	6	2	4	2
50.0	85.0	28.0	4	21	4	11	3	6	3	6	2
50.0	88.0	7.0	5	6	8	8	7	6	6	7	4	7	3
54.0	86.0	3.0	1	6	5
54.0	90.0	10.0	3	7	9	17	4	7	2
10.0	35.0	7.0	5	8	9	6	7	7	4	6	3	10	2
10.0	40.0	12.0	1	11	2
18.0	30.0	11.0	3	7	8	12	3	12	3
17.0	35.0	10.0	3	22	4	23	2	16	2
16.0	38.0	8.0	1	5	3
14.0	40.0	11.0	5	12	5	6	5	7	3	6	2	4	2
15.0	42.0	21.0	2	6	11	6	4
11.0	42.0	4.0	2	5	5	14	3
18.0	40.0	15.0	3	8	10	13	4	6	4
21.0	39.0	16.0	1	9	4
20.0	40.0	4.0	5	5	10	4	5	12	4	11	3	12	2
18.0	41.0	16.0	4	4	12	7	8	9	4	7	2
20.0	44.0	7.0	3	6	6	8	4	5	4
22.0	44.0	10.0	3	5	6	22	4	18	2
16.0	45.0	9.0	1	7	4
20.0	45.0	11.0	4	12	4	24	3	8	3	7	3
25.0	45.0	17.0	5	7	4	20	3	12	3	8	2	5	2
30.0	55.0	12.0	5	10	6	11	4	16	3	10	3	16	2
20.0	50.0	11.0	5	5	11	5	8	6	6	6	5	13	3
22.0	51.0	7.0	1	7	6
18.0	49.0	9.0	5	5	6	6	4	24	3	21	3	5	3
16.0	48.0	11.0	1	8	2
20.0	55.0	12.0	3	5	5	10	3	7	3
18.0	53.0	7.0	3	12	3	6	3	4	3
14.0	50.0	8.0	1	13	3
15.0	51.0	6.0	4	6	5	10	4	4	3	7	2
16.0	54.0	5.0	4	7	9	6	8	6	6	7	4
28.0	33.0	12.0	5	4	11	8	8	9	4	18	3	6	2
33.0	38.0	13.0	5	11	6	6	5	9	4	12	3	11	3
30.0	50.0	7.0	5	4	10	15	4	9	4	5	3	5	2
13.0	40.0	7.0	5	9	4	5	4	15	3	21	2	9	2
15.0	36.0	8.0	4	5	7	9	5	20	4	10	3
18.0	31.0	11.0	4	7	5	18	3	16	3	20	2
25.0	37.0	13.0	3	6	4	4	4	17	2
30.0	46.0	11.0	2	7	2	6	2
25.0	52.0	10.0	2	4	7	12	3
16.0	33.0	7.0	2	5	10	14	3
25.0	35.0	4.0	2	17	3	11	3
5.0	40.0	20.0	2	22	3	7	3
5.0	50.0	13.0	3	8	10	5	4	5	4